p cnf 13 13
-4 6 1 9 -2 0
-8 1 2 -5 -11 0
12 6 5 -11 -10 0
-12 -4 13 7 -2 0
-3 4 -9 2 -12 0
5 1 -9 3 -6 0
7 -1 -9 -3 6 0
1 -4 -11 -2 -6 0
-10 -6 -5 4 -2 0
-4 -3 1 2 -8 0
10 -2 5 -1 4 0
2 4 5 -13 1 0
5 -6 10 -4 1 0
